c FILE: i080-004

c SOURCE: From steinlib

c DESCRIPTION: Steinlib instance with 80 nodes and 120 edges.

p edge 80 120
e 1 32
e 1 40
e 1 73
e 1 74
e 1 75
e 1 77
e 2 15
e 2 21
e 3 36
e 3 59
e 4 5
e 4 64
e 4 74
e 6 7
e 6 23
e 6 34
e 6 78
e 7 8
e 7 27
e 7 50
e 7 57
e 7 73
e 8 34
e 8 49
e 8 60
e 9 41
e 9 56
e 10 52
e 11 27
e 11 76
e 12 14
e 12 46
e 12 75
e 13 28
e 13 35
e 13 38
e 13 44
e 13 59
e 13 61
e 14 19
e 14 58
e 15 34
e 16 63
e 16 66
e 17 74
e 17 77
e 18 28
e 18 54
e 18 74
e 19 59
e 20 29
e 20 73
e 21 24
e 21 43
e 21 46
e 21 50
e 21 63
e 22 42
e 22 67
e 22 71
e 22 78
e 23 29
e 23 66
e 23 73
e 24 36
e 25 56
e 25 57
e 25 67
e 25 72
e 25 75
e 26 47
e 26 65
e 26 67
e 27 73
e 28 39
e 28 46
e 30 34
e 30 38
e 30 53
e 30 65
e 31 52
e 32 41
e 32 53
e 32 55
e 32 70
e 32 78
e 33 48
e 33 64
e 36 67
e 37 77
e 39 80
e 40 59
e 41 49
e 41 57
e 43 61
e 44 64
e 45 58
e 46 48
e 46 59
e 47 49
e 47 80
e 48 69
e 49 62
e 49 80
e 50 65
e 51 59
e 52 64
e 54 73
e 57 77
e 58 73
e 59 67
e 59 77
e 60 74
e 60 77
e 61 63
e 64 67
e 66 67
e 67 80
e 68 73
e 74 79
